1000 1781
1 2 3 4 5 6 7 8 9 10 11 12 13 14
0 9 15 16 17 18 19 20 21 22 23 24 25 26 27 28
0 5 29 30 31 32 33 34 35 36 37 38 39 40 41 42 43 44 45 46
0 20 32 41 47 48 49 50 51 52 53 54 55 56 57 58 59 60 61 62 63 64 65 66 67 68 69 70 71 72 73 74 75 76 77 78 79 80 81 82 83 84 85 86 87 88 89 90 91 92 93 94
0 95 96 97 98 99 100 101
0 2 6 11 102 103 104 105 106 107 108
0 5 29 109 110 111 112 113 114 115 116 117 118 119 120 121 122 123 124 125 126 127 128 129 130 131 132 133 134 135 136 137 138 139 140 141 142 143 144 145 146 147 148 149 150 151 152 153 154 155 156 157 158 159 160 161 162 163 164 165 166 167 168 169 170 171 172 173 174 175 176
0 177 178 179 180 181 182 183 184 185 186 187 188 189 190 191 192 193 194 195 196 197 198 199 200 201 202 203 204 205 206 207 208
0 209 210 211 212 213 214 215 216 217 218 219 220 221
0 1 14 15 181 205 206 222 223 224 225 226 227 228 229 230 231 232 233 234 235 236 237 238 239 240 241 242 243 244 245 246 247 248 249 250 251 252 253 254 255 256 257 258 259 260 261 262 263 264 265 266 267 268 269 270 271 272 273 274 275 276 277 278 279 280 281 282 283 284 285 286 287 288 289 290 291 292 293 294 295 296 297 298 299 300
0 81 159 301 302 303 304 305 306 307 308 309 310 311 312 313 314 315 316 317 318 319 320 321 322 323 324 325 326 327 328 329 330 331 332 333 334 335 336 337 338 339 340 341 342
0 5 107 134 157 164 343 344 345 346 347 348 349 350 351 352 353 354 355 356 357 358 359 360 361 362 363 364 365 366 367 368 369 370 371 372 373 374 375 376 377 378 379 380 381 382 383 384 385 386 387 388 389 390 391 392 393 394 395 396 397 398 399 400 401 402 403 404 405 406 407 408 409 410 411 412 413 414 415 416 417 418 419 420 421 422 423 424 425 426 427 428 429 430 431 432 433 434 435 436 437 438 439 440 441 442 443 444 445 446 447 448 449 450
0 13 20 200 257 451 452 453 454 455 456 457 458 459 460 461 462 463 464 465 466 467 468 469 470 471 472 473 474 475 476 477 478 479 480 481 482 483 484 485 486 487 488 489 490 491 492 493 494 495 496 497 498 499 500
0 12 14 457 493 501 502 503 504 505 506 507 508 509 510 511 512 513 514 515 516 517 518
0 9 13 229 238 475 508 519 520 521 522 523 524 525 526 527 528 529 530 531 532 533 534 535 536 537 538 539 540 541 542 543 544 545 546 547 548 549 550 551 552 553 554 555 556 557 558 559 560 561 562
1 9 254 563 564 565 566
1 567 568 569 570 571 572 573 574 575
1 208 576 577 578 579 580 581 582 583 584 585 586 587 588 589 590 591 592 593 594 595 596 597 598 599 600 601 602 603 604 605 606 607 608 609 610 611 612 613 614 615 616 617 618 619 620 621 622 623 624 625 626 627
1 628 629 630 631 632 633 634 635 636 637 638 639 640 641 642 643 644 645 646 647 648 649 650 651 652 653 654 655 656 657 658 659 660 661 662
1 663 664 665 666 667 668 669 670 671 672 673 674 675 676 677 678 679
1 3 12 229 278 562 680 681 682 683 684 685 686 687 688 689 690
1 370 418 446 597 691 692 693 694 695 696 697 698 699 700 701 702 703 704 705 706 707 708 709 710 711 712 713 714 715 716 717 718 719 720 721 722 723 724 725 726 727 728 729 730 731 732 733 734 735 736 737 738 739 740 741 742 743 744 745 746 747 748 749 750 751 752 753 754 755 756 757 758 759 760 761 762 763 764 765 766 767 768 769 770 771 772 773 774 775 776 777 778 779 780 781 782 783 784 785 786 787 788 789 790 791 792 793 794 795 796 797 798 799 800 801 802 803 804 805 806 807 808 809 810 811 812 813 814 815 816 817 818 819 820 821 822 823 824 825 826 827 828 829 830 831 832 833 834 835 836 837 838 839 840 841 842 843 844 845 846 847 848 849 850 851 852 853 854 855 856 857 858 859 860 861 862 863 864 865 866 867 868 869 870 871 872 873 874 875 876 877 878 879 880 881 882 883 884 885 886 887 888 889 890 891 892 893 894 895 896 897 898 899 900 901 902 903 904 905 906 907 908 909 910 911 912 913 914 915 916 917 918 919 920 921 922 923 924 925 926 927 928 929 930 931 932 933 934 935 936 937 938 939 940 941 942 943 944 945 946 947 948 949 950 951 952 953 954 955 956 957 958 959 960 961 962 963 964 965 966 967 968 969 970 971 972 973 974 975 976 977 978 979 980 981 982 983 984 985 986 987 988 989 990 991 992 993 994 995 996 997 998 999
1 24
1 789
1 22 856
1
1 64 90
1
1
2 6 32 41 45
2 37 42 44
2 32 41 45
2 3 29 31 35 36 40 41 45 83 91 133 142 325 329 335
2
2 91
2 32 36 38 40 41 45
2 32 35 41 45
2 30 42 44 46 55 336 339
2 35 41 45
2
2 32 35 41 45
2 3 29 31 32 35 36 38 40 45 83 88 120 159 333 476
2 30 37 44
2 45
2 30 37 42 50 342
2 29 31 32 35 36 38 40 41 43 81
2 37 115
3 305
3
3 142
3 44 74
3 73 476
3 54 56 61 77 89
3 316
3 52 61 91
3 37 77 83 85 89 90 92 154 163 457 682
3 52 91 349
3 332
3 71
3 66
3
3 52 54 70 77 83 94 144 152 316
3
3
3 26 525
3
3 59 87 91
3
3 159 341
3 131
3 61 83 141 144 153 315 333
3 58 89 91
3
3 51 310 311
3 50 89 115 135 163
3 341
3
3 52 55 61 83 86 91 153 336
3 88
3
3
3 10 45
3 476
3 32 41 55 61 70 77 86 91
3 435
3 55
3 77 83
3 66 115
3 41 78
3 52 55 71 74
3 26 55 682
3 32 34 54 56 66 71 77 83
3 55
3
3 61 144 303
4 96 100
4 95 100
4
4 99 100
4 98
4 95 96 98 395
4
5 104 107 129 354
5
5 102 129 147 783
5
5 125 154 168
5 11 102 151
5
6 113
6 151
6 123 144
6 116 142 146 159 305
6 109 115 123 133 135 163 167
6 129 134 138 155 164 168 358 412 414 420 425 435
6 46 74 87 113 330 818
6 112 128 131 174 335
6
6
6
6 41 142 143 157 176 370
6
6 139 163 303
6 111 113 144 159
6
6 106 133 134 162 163 168 305
6 155 289 305 353 358 435
6
6 116 305
6 102 104 114 138 155 171 305 435
6
6 69 116
6 154 412
6 32 113 125 159 305
6 11 114 125 370
6 74 113 353
6 159 172
6 142 159 172 412 435
6 114 129 164 358 410
6 122 145 162 163 303
6 176 210
6 70 167
6 32 49 112 120 137 143 159 307 340 448
6 120 142 176
6 61 70 94 111 123 313 319 341
6 139 162
6 112 164 435
6 104 154 155 435
6 175
6
6
6 107 110 160 161
6 61 173 310
6 70 77 173
6 55 106 132 147 157
6 114 126 129 147 164 165 168 304 358 420 435
6
6 11 120 154 305 353 357 412
6
6 10 41 68 112 123 133 136 137 142 309 311 313 325 336 340 476
6 151
6 151
6 125 139 145 163 303 305
6 55 74 113 122 125 139 162 167 210 303 315 330 335
6 11 114 138 146 155 171 353 358 370 412 435
6 155
6 168
6 113 141 163
6 106 114 125 155 166 419 435
6 315
6
6 129 164 266 289 435 457
6 136 137 356 377
6 152 153 307 313 316 319 341
6 116
6 148
6 120 140 143
7
7 181
7
7 181 206 525
7 9 178 180 190 193 196 199 200 205 206 229 247 285 298 459 560 892
7
7 261 297
7 190 457 516
7
7 516 543
7 208 238
7
7
7 181 184 196 199 231 611
7 196
7 525
7 181
7 263 560
7 269
7 181 190 191 227 247
7 229
7 511
7 181 190 525
7 12 181 477 508
7 289
7 463
7 564 687
7 269 289 525
7 9 181 250 289 533 544
7 9 180 181 261 515
7
7 17 187 525 855
8 783
8 140 163 211
8 210 216 219 220
8 214
8 301 325 818
8 212 628
8 219
8 211 218 219 220
8 219
8 216 219 220
8 211 215 216 217 218
8 211 216 218
8
9
9 229 280
9
9
9 253 274
9 196 298
9
9 14 20 181 197 223 231 247 254 261 269 275 280 470 475 525 535 548 560
9 294 300
9 190 229 254 289 457 540
9
9
9 290
9 260
9
9
9 14 187 523 525 531 532 535 543 544 548 560
9
9
9 245
9 251
9
9
9 241 254
9 281 293
9 181 196 229 275 298 515
9 262
9
9 205
9 242 295
9
9 226 290 294
9 15 229 231 245 289 525
9 264
9 281
9 12 269 483 494
9
9
9 235
9 183 206 229 275 535 560
9 248 283
9 194 532
9 255
9 277 286 525
9 171 289 476 515 682
9
9 284
9 195 204 229 257 275 459
9
9
9
9
9 226 294
9 229 247 261 269 508 515
9 281 284 293
9 265 286
9 20
9
9 223 229
9 246 256 276 284 293
9
9 262
9 268 276 281
9 181 457
9 265 277
9 427
9
9 126 171 201 204 205 231 254 266 296 410 457 543
9 234 253
9
9
9 246 276 281
9 230 253 274
9 251
9 289 515
9 183
9 181 227 247
9
9 230
10 213 818
10 321 323 330 425
10 94 122 139 162 163 305 329 330 336
10 155
10 47 112 125 126 128 129 133 157 162 303 311 323 329 448
10
10 142 173 341
10 419
10 159
10 73 152
10 73 159 305 315
10 338 456 499
10 144 159 173 341
10
10 70 163 169 311 318 333 429
10 53 61 173
10
10 315
10 144 173 341
10
10 302 323 330 341
10
10 302 305 321 324 330 338 339 412
10 323
10 32 159 213 341 476
10
10
10
10 32 303 305
10 115 163 302 303 321 323 336
10 412
10 57
10 41 70 315
10
10 32 116 163
10 37 77 159 303 330 339
10
10 312 323
10 37 323 336 342
10 142 159
10 68 75 144 173 307 313 319 321 325
10 44 339 353
11 404
11
11
11
11
11 357
11 56 448
11
11
11
11 126 135 157 164 342 412 435 448
11 102 357
11 412
11 172
11 157 348 354 368 390 412 425 428 437 445 448 450
11 114 126 138 155 164 389 390 410 412 425 435
11
11
11
11
11
11
11
11
11
11 357 412 437
11
11 21 120 134 164 448
11
11
11
11
11
11
11 172
11
11
11
11
11
11
11 783
11
11
11
11
11 358
11 357 358 412
11
11
11
11
11 100
11
11
11
11
11
11
11
11
11 343 783
11
11
11
11
11 592
11 138 289 358 419 435
11
11 114 132 137 157 164 323 331 353 355 357 358 368 390 414 419 425 428 430 435 437 445 448
11
11 114 412 435
11
11
11
11 21 866
11 168 308 410 412
11 114 155 435
11
11
11
11
11 114 302 357 358 412 435 437
11
11 287
11 357 412 437
11 315
11 412
11
11
11
11
11 84 114 126 129 137 146 147 155 164 168 171 353 358 410 412 414 420 425
11
11 357 368 412 425 428
11
11
11
11
11
11
11
11 357 412
11 21 529 663
11
11 142 305 349 353 357 370 412
11 933
11 357
12
12 469 480 489 490 495
12 496
12
12 470
12 312 629
12 13 55 171 184 231 285 289 476 605 744
12 472 478 480 490
12 181 269
12 470
12 485 487
12
12 202
12
12
12
12 470 487
12 491
12 452 472 478 484 490 495
12 229 455 460 467 481 485 496
12 482 486
12 458 469 478 480 482 490 491 500
12
12 490
12 14 229
12 41 51 82 159 266 325 457 538
12 200
12 458 469 472 480 484 488 490 500
12
12 452 458 472 478 484 490
12 470 496
12 471 472
12 257 493
12 469 478 480 490
12 461 470 487
12 471
12 461 467 485
12 478
12 452
12 452 458 469 472 474 478 480 484 491 500
12 468 472 490
12
12 13 483 682
12 257
12 452 469
12 453 470 481
12 684
12
12 312
12 472 478 490
13
13
13
13
13
13 914
13
13 14 200 275 523 538 548
13
13 548
13 198
13
13
13 696 803
13 206 247 266 275 296
13 184 186
13 701
13
14 533
14 522 549
14 524 536 539 546 550 558
14 520 536 550
14 238 508 538 544 548
14 521 528 529 536 539 546 551
14 64 180 192 199 204 208 229 238 254 265 531 548
14
14 534 550
14 524 529 534
14 446 524 528 534 550
14
14 238 525 548 588
14 238 263
14 205 519 544
14 527 528 529 536 539
14 229 238 261 541
14 521 522 524 534 539 546 547 549 550
14
14 476 508 523 548
14 521 524 534 536 546 547 550
14 231
14 535
14 554
14 186 238 289 548
14 205 238 523 533
14
14 521 524 536 539 550 558
14 536 539
14 229 238 508 510 523 525 531 538 543 553
14 520 536
14 521 522 527 529 536 539 546 551
14 524 550
14
14 548
14 542
14 613
14
14
14 521 546
14
14 181 194 229 238 261
14
14 20
15 565
15 203
15 563
15
16
16
16
16
16
16
16 575
16
16 573
17
17
17
17
17 731
17
17
17
17 595 609 770 916
17
17
17
17 531
17
17
17
17 409 837
17
17 605
17 584 609
17
17 21
17
17
17
17
17
17 972
17
17 457 594
17
17
17 620
17 584 595 926
17
17 190
17
17 555
17
17 894
17
17
17
17
17 608 740 798 942
17 670
17
17
17
17
17 822
17
18 214
18 456
18 655 662
18
18 651 654 662
18
18 646 657
18 659
18
18
18
18
18
18
18
18
18
18
18 634 659
18
18
18
18
18 632 662
18
18
18 632
18 630
18
18 634
18 660
18 635 646
18 658 662
18
18 630 632 651 660
19 446 676
19
19
19
19
19
19
19 621
19
19
19
19
19
19 663
19
19
19
20
20 688
20 55 90 266 493
20
20 497
20 688 689
20
20 203
20 681 685 689
20 685 688
20
21
21
21
21
21
21 514
21
21
21
21
21 517
21 714
21 731 784 921
21
21
21
21
21
21 719 770
21 893 904
21
21 974
21
21 702
21
21
21
21
21 709
21
21
21
21
21
21
21 866
21
21
21
21 783
21 580 703 921 974
21
21
21
21
21 752
21
21
21
21 620
21
21
21 924
21 457
21
21
21
21
21 971
21
21
21 736
21
21
21
21
21
21
21
21
21 808
21
21 870
21
21 864
21
21
21
21
21 584 709 816
21
21 899
21
21
21 926
21
21
21
21
21
21
21
21 104 209 384 404 730 815 895 921
21 703 972
21
21
21
21 818
21 23 804
21
21
21
21
21
21
21
21
21 620
21
21
21
21
21 514
21 789
21
21
21
21 761
21
21
21
21
21
21
21 783
21 770
21
21 115 213 301 788
21
21
21 930
21 626
21
21
21
21
21
21
21 883
21
21
21
21
21
21
21 915
21 592
21
21
21
21
21
21
21
21
21
21
21
21
21
21
21
21
21
21 208
21 24
21
21
21
21
21
21 893
21
21 765 916
21 920
21 418 726 893 904
21 922
21
21
21 763
21
21
21
21
21
21
21
21
21
21
21
21
21 829
21
21
21
21
21
21
21
21 926
21 181
21 710 862 866 926
21 615
21 783 899
21
21
21
21 772 895
21
21
21
21
21 710 866
21
21
21
21 944
21
21
21
21
21
21 506
21 836
21 584 864 938 942
21
21
21
21 865
21 703 731 783
21 867
21
21 743
21
21 609 775 891 893 999
21 962
21
21
21 821
21
21
21 449
21
21
21
21
21 916
21
21
21
21 620 916
21
21 908
21
21
21
21
21
21
21
21
21
21
21
21
21
21
21 975
21
21
21 927
21 999
21
21
21
21
21
21
21
21 749
21 603 784
21
21 712 731 997
21 959
21
21
21
21
21
21
21
21
21
21
21
21
21
21
21
21
21
21
21
21
21
21 974
21
21 926 963
